solution status: optimal solution found
objective value:                                 -238
C0001                                               1 	(obj:-1)
C0008                                               1 	(obj:-1)
C0015                                               1 	(obj:-1)
C0022                                               1 	(obj:-1)
C0035                                               1 	(obj:-1)
C0042                                               1 	(obj:-1)
C0049                                               1 	(obj:-1)
C0051                                               1 	(obj:-1)
C0058                                               1 	(obj:-1)
C0067                                               1 	(obj:-1)
C0076                                               1 	(obj:-1)
C0082                                               1 	(obj:-1)
C0112                                               1 	(obj:-1)
C0116                               0.999999999999999 	(obj:-1)
C0126                                               1 	(obj:-1)
C0133                                               1 	(obj:-1)
C0161                                               1 	(obj:-1)
C0168                                               1 	(obj:-1)
C0175                                               1 	(obj:-1)
C0191                                               1 	(obj:-1)
C0196                                               1 	(obj:-1)
C0205                                               1 	(obj:-1)
C0212                                               1 	(obj:-1)
C0219                                               1 	(obj:-1)
C0220                                               1 	(obj:-1)
C0227                                               1 	(obj:-1)
C0231                                               1 	(obj:-1)
C0235                                               1 	(obj:-1)
C0239                                               1 	(obj:-1)
C0265                                               1 	(obj:-1)
C0273                                               1 	(obj:-1)
C0280                                               1 	(obj:-1)
C0287                                               1 	(obj:-1)
C0290                                               1 	(obj:-1)
C0295                                               1 	(obj:-1)
C0299                                               1 	(obj:-1)
C0302                                               1 	(obj:-1)
C0307                                               1 	(obj:-1)
C0315                                               1 	(obj:-1)
C0319                                               1 	(obj:-1)
C0322                                               1 	(obj:-1)
C0324                                               1 	(obj:-1)
C0328                                               1 	(obj:-1)
C0335                                               1 	(obj:-1)
C0336                                               1 	(obj:-1)
C0342                                               1 	(obj:-1)
C0347                                               1 	(obj:-1)
C0351                                               1 	(obj:-1)
C0355                                               1 	(obj:-1)
C0359                                               1 	(obj:-1)
C0363                                               1 	(obj:-1)
C0387                                               1 	(obj:-1)
C0394                                               1 	(obj:-1)
C0398                                               1 	(obj:-1)
C0402                                               1 	(obj:-1)
C0406                                               1 	(obj:-1)
C0410                                               1 	(obj:-1)
C0414                                               1 	(obj:-1)
C0417                                               1 	(obj:-1)
C0421                                               1 	(obj:-1)
C0425                                               1 	(obj:-1)
C0430                                               1 	(obj:-1)
C0433                                               1 	(obj:-1)
C0441                                               1 	(obj:-1)
C0448                                               1 	(obj:-1)
C0455                                               1 	(obj:-1)
C0483                                               1 	(obj:-1)
C0490                                               1 	(obj:-1)
C0497                                               1 	(obj:-1)
C0499                                               1 	(obj:-1)
C0505                                               1 	(obj:-1)
C0508                                               1 	(obj:-1)
C0513                                               1 	(obj:-1)
C0517                                               1 	(obj:-1)
C0520                                               1 	(obj:-1)
C0525                                               1 	(obj:-1)
C0528                                               1 	(obj:-1)
C0533                                               1 	(obj:-1)
C0537                                               1 	(obj:-1)
C0544                                               1 	(obj:-1)
C0551                                               1 	(obj:-1)
C0558                                               1 	(obj:-1)
C0562                                               1 	(obj:-1)
C0565                                               1 	(obj:-1)
C0570                                               1 	(obj:-1)
C0574                                               1 	(obj:-1)
C0578                                               1 	(obj:-1)
C0581                                               1 	(obj:-1)
C0585                                               1 	(obj:-1)
C0590                                               1 	(obj:-1)
C0594                                               1 	(obj:-1)
C0598                                               1 	(obj:-1)
C0599                                               1 	(obj:-1)
C0605                                               1 	(obj:-1)
C0610                                               1 	(obj:-1)
C0615                                               1 	(obj:-1)
C0623                                               1 	(obj:-1)
C0628                                               1 	(obj:-1)
C0650                                               1 	(obj:-1)
C0657                                               1 	(obj:-1)
C0664                                               1 	(obj:-1)
C0665                                               1 	(obj:-1)
C0671                                               1 	(obj:-1)
C0673                                               1 	(obj:-1)
C0679                                               1 	(obj:-1)
C0684                                               1 	(obj:-1)
C0688                                               1 	(obj:-1)
C0691                                               1 	(obj:-1)
C0696                                               1 	(obj:-1)
C0699                                               1 	(obj:-1)
C0703                                               1 	(obj:-1)
C0727                                               1 	(obj:-1)
C0764                                               1 	(obj:-1)
C0771                                               1 	(obj:-1)
C0799                                               1 	(obj:-1)
C0806                                               1 	(obj:-1)
C0816                                               1 	(obj:-1)
C0817                                               1 	(obj:-1)
C0819                                               1 	(obj:-1)
C0823                                               1 	(obj:-1)
C0826                                               1 	(obj:-1)
C0861                                               1 	(obj:-1)
C0864                                               1 	(obj:-1)
C0866                                               1 	(obj:-1)
C0869                                               1 	(obj:-1)
C0894                                               1 	(obj:-1)
C0900                                               1 	(obj:-1)
C0904                                               1 	(obj:-1)
C0917                                               1 	(obj:-1)
C0925                                               1 	(obj:-1)
C0928                                               1 	(obj:-1)
C0936                                               1 	(obj:-1)
C0937                                               1 	(obj:-1)
C0941                                               1 	(obj:-1)
C0960                                               1 	(obj:-1)
C0961                                               1 	(obj:-1)
C0964                                               1 	(obj:-1)
C0966                                               1 	(obj:-1)
C0972                                               1 	(obj:-1)
C0976                                               1 	(obj:-1)
C0978                                               1 	(obj:-1)
C0979                                               1 	(obj:-1)
C0984                                               1 	(obj:-1)
C0989                                               1 	(obj:-1)
C0994                                               1 	(obj:-1)
C1003                                               1 	(obj:-1)
C1023                                               1 	(obj:-1)
C1028                                               1 	(obj:-1)
C1031                                               1 	(obj:-1)
C1052                                               1 	(obj:-1)
C1055                                               1 	(obj:-1)
C1063                                               1 	(obj:-1)
C1068                                               1 	(obj:-1)
C1072                                               1 	(obj:-1)
C1075                                               1 	(obj:-1)
C1082                                               1 	(obj:-1)
C1087                                               1 	(obj:-1)
C1092                                               1 	(obj:-1)
C1097                                               1 	(obj:-1)
C1127                                               1 	(obj:-1)
C1133                                               1 	(obj:-1)
C1137                                               1 	(obj:-1)
C1143                                               1 	(obj:-1)
C1145                                               1 	(obj:-1)
C1152                                               1 	(obj:-1)
C1157                                               1 	(obj:-1)
C1162                                               1 	(obj:-1)
C1165                                               1 	(obj:-1)
C1175                                               1 	(obj:-1)
C1182                                               1 	(obj:-1)
C1185                                               1 	(obj:-1)
C1190                                               1 	(obj:-1)
C1195                                               1 	(obj:-1)
C1202                                               1 	(obj:-1)
C1205                                               1 	(obj:-1)
C1210                                               1 	(obj:-1)
C1217                                               1 	(obj:-1)
C1222                                               1 	(obj:-1)
C1227                                               1 	(obj:-1)
C1232                                               1 	(obj:-1)
C1235                                               1 	(obj:-1)
C1265                                               1 	(obj:-1)
C1269                                               1 	(obj:-1)
C1274                                               1 	(obj:-1)
C1279                                               1 	(obj:-1)
C1284                                               1 	(obj:-1)
C1289                                               1 	(obj:-1)
C1294                                               1 	(obj:-1)
C1297                                               1 	(obj:-1)
C1304                                               1 	(obj:-1)
C1309                                               1 	(obj:-1)
C1314                                               1 	(obj:-1)
C1317                                               1 	(obj:-1)
C1324                                               1 	(obj:-1)
C1330                                               1 	(obj:-1)
C1335                                               1 	(obj:-1)
C1354                                               1 	(obj:-1)
C1357                                               1 	(obj:-1)
C1364                                               1 	(obj:-1)
C1367                                               1 	(obj:-1)
C1374                                               1 	(obj:-1)
C1379                                               1 	(obj:-1)
C1384                                               1 	(obj:-1)
C1389                                               1 	(obj:-1)
C1394                                               1 	(obj:-1)
C1397                                               1 	(obj:-1)
C1404                                               1 	(obj:-1)
C1409                                               1 	(obj:-1)
C1414                                               1 	(obj:-1)
C1420                                               1 	(obj:-1)
C1424                                               1 	(obj:-1)
C1430                                               1 	(obj:-1)
C1434                                               1 	(obj:-1)
C1437                                               1 	(obj:-1)
C1444                                               1 	(obj:-1)
C1449                                               1 	(obj:-1)
C1454                                               1 	(obj:-1)
C1457                                               1 	(obj:-1)
C1464                                               1 	(obj:-1)
C1467                                               1 	(obj:-1)
C1474                                               1 	(obj:-1)
C1479                                               1 	(obj:-1)
C1482                                               1 	(obj:-1)
C1487                                               1 	(obj:-1)
C1494                                               1 	(obj:-1)
C1515                                               1 	(obj:-1)
C1520                               0.999999999999999 	(obj:-1)
C1525                                               1 	(obj:-1)
C1527                                               1 	(obj:-1)
C1532                                               1 	(obj:-1)
C1537                                               1 	(obj:-1)
C1544                                               1 	(obj:-1)
C1549                                               1 	(obj:-1)
C1554                                               1 	(obj:-1)
C1559                                               1 	(obj:-1)
C1564                                               1 	(obj:-1)
C1569                                               1 	(obj:-1)
C1574                                               1 	(obj:-1)
C1576                                               1 	(obj:0)
C1577                                               1 	(obj:0)
C1578                                               1 	(obj:0)
C1579                                               1 	(obj:0)
C1581                                               1 	(obj:0)
C1582                                               1 	(obj:0)
C1584                                               1 	(obj:0)
C1586                                               1 	(obj:0)
C1587                                               1 	(obj:0)
C1588                                               1 	(obj:0)
C1589                                               1 	(obj:0)
C1591                                               1 	(obj:0)
C1592                                               1 	(obj:0)
C1593                                               1 	(obj:0)
C1594                                               1 	(obj:0)
C1595                                               1 	(obj:0)
C1596                                               1 	(obj:0)
C1597                                               1 	(obj:0)
C1599                                               1 	(obj:0)
C1600                                               1 	(obj:0)
C1601                                               1 	(obj:0)
C1603                                               1 	(obj:0)
C1604                                               1 	(obj:0)
C1605                                               1 	(obj:0)
C1606                                               1 	(obj:0)
C1607                                               1 	(obj:0)
C1609                                               1 	(obj:0)
C1610                                               1 	(obj:0)
C1611                                               1 	(obj:0)
C1612                                               1 	(obj:0)
C1613                                               1 	(obj:0)
C1614                                               1 	(obj:0)
C1615                                               1 	(obj:0)
C1616                                               1 	(obj:0)
C1618                                               1 	(obj:0)
C1619                                               1 	(obj:0)
C1620                                               1 	(obj:0)
C1621                                               1 	(obj:0)
C1625                                               1 	(obj:0)
C1630                                               1 	(obj:0)
C1634                                               1 	(obj:0)
C1642                                               1 	(obj:0)
C1646                                               1 	(obj:0)
C1654                                               1 	(obj:0)
C1662                                               1 	(obj:0)
C1666                                               1 	(obj:0)
C1670                                               1 	(obj:0)
C1674                                               1 	(obj:0)
C1682                                               1 	(obj:0)
C1686                                               1 	(obj:0)
C1690                                               1 	(obj:0)
C1694                                               1 	(obj:0)
C1698                                               1 	(obj:0)
C1702                                               1 	(obj:0)
C1706                                               1 	(obj:0)
C1714                                               1 	(obj:0)
C1718                                               1 	(obj:0)
C1722                                               1 	(obj:0)
C1730                                               1 	(obj:0)
C1734                                               1 	(obj:0)
C1738                                               1 	(obj:0)
C1742                                               1 	(obj:0)
C1746                                               1 	(obj:0)
C1754                                               1 	(obj:0)
C1758                                               1 	(obj:0)
C1762                                               1 	(obj:0)
C1766                                               1 	(obj:0)
C1770                                               1 	(obj:0)
C1774                                               1 	(obj:0)
C1778                                               1 	(obj:0)
C1782                                               1 	(obj:0)
C1790                                               1 	(obj:0)
C1794                                               1 	(obj:0)
C1798                                               1 	(obj:0)
C1830                                               1 	(obj:0)
C2069                                               1 	(obj:0)
C2308                                               1 	(obj:0)
C2549                                               1 	(obj:0)
C2860                                               1 	(obj:0)
C3019                                               1 	(obj:0)
C3256                                               1 	(obj:0)
C3477                                               1 	(obj:0)
C3716                                               1 	(obj:0)
C4046                                               1 	(obj:0)
C4201                                               1 	(obj:0)
C4419                                               1 	(obj:0)
C5412                                               1 	(obj:0)
C5702                               0.999999999999999 	(obj:0)
C5890                                               1 	(obj:0)
C6121                                               1 	(obj:0)
C7081                                               1 	(obj:0)
C7340                                               1 	(obj:0)
C7630                                               1 	(obj:0)
C8377                                               1 	(obj:0)
C8489                                               1 	(obj:0)
C8805                                               1 	(obj:0)
C9010                                               1 	(obj:0)
C9280                                               1 	(obj:0)
C9537                                               1 	(obj:0)
C9650                                               1 	(obj:0)
C9885                                               1 	(obj:0)
C10041                                              1 	(obj:0)
C10211                                              1 	(obj:0)
C11381                                              1 	(obj:0)
C11563                                              1 	(obj:0)
C11854                                              1 	(obj:0)
C12046                                              1 	(obj:0)
C12407                                              1 	(obj:0)
C12476                                              1 	(obj:0)
C12618                                              1 	(obj:0)
C12827                                              1 	(obj:0)
C12981                                              1 	(obj:0)
C13481                                              1 	(obj:0)
C13605                                              1 	(obj:0)
C13706                                              1 	(obj:0)
C13986                                              1 	(obj:0)
C14128                                              1 	(obj:0)
C14327                                              1 	(obj:0)
C14562                                              1 	(obj:0)
C14694                                              1 	(obj:0)
C14825                                              1 	(obj:0)
C15025                                              1 	(obj:0)
C15272                                              1 	(obj:0)
C15473                                              1 	(obj:0)
C15582                                              1 	(obj:0)
C16729                                              1 	(obj:0)
C16885                                              1 	(obj:0)
C17162                                              1 	(obj:0)
C17419                                              1 	(obj:0)
C17586                                              1 	(obj:0)
C17761                                              1 	(obj:0)
C17874                                              1 	(obj:0)
C18040                                              1 	(obj:0)
C18213                                              1 	(obj:0)
C18517                                              1 	(obj:0)
C18589                                              1 	(obj:0)
C18749                                              1 	(obj:0)
C18959                                              1 	(obj:0)
C19198                                              1 	(obj:0)
C19485                                              1 	(obj:0)
C20372                                              1 	(obj:0)
C20613                                              1 	(obj:0)
C20904                                              1 	(obj:0)
C21226                                              1 	(obj:0)
C21367                                              1 	(obj:0)
C21570                                              1 	(obj:0)
C21670                                              1 	(obj:0)
C21945                                              1 	(obj:0)
C22126                                              1 	(obj:0)
C22225                                              1 	(obj:0)
C22518                                              1 	(obj:0)
C22538                                              1 	(obj:0)
C22787                                              1 	(obj:0)
C22985                                              1 	(obj:0)
C23161                                              1 	(obj:0)
C23412                                              1 	(obj:0)
C23778                                              1 	(obj:0)
C23916                                              1 	(obj:0)
C24091                                              1 	(obj:0)
C24331                                              1 	(obj:0)
C24433                                              1 	(obj:0)
C24627                                              1 	(obj:0)
C24813                                              1 	(obj:0)
C25052                                              1 	(obj:0)
C25208                                              1 	(obj:0)
C25391                                              1 	(obj:0)
C25509                                              1 	(obj:0)
C25654                                              1 	(obj:0)
C25902                                              1 	(obj:0)
C26150                                              1 	(obj:0)
C26362                                              1 	(obj:0)
C26577                                              1 	(obj:0)
C27315                                              1 	(obj:0)
C27607                                              1 	(obj:0)
C27779                                              1 	(obj:0)
C28005                                              1 	(obj:0)
C28342                                              1 	(obj:0)
C28354                                              1 	(obj:0)
C28574                                              1 	(obj:0)
C28875                                              1 	(obj:0)
C29012                                              1 	(obj:0)
C29097                                              1 	(obj:0)
C29409                                              1 	(obj:0)
C29554                                              1 	(obj:0)
C29689                                              1 	(obj:0)
C30541                                              1 	(obj:0)
C31650                                              1 	(obj:0)
C31886                                              1 	(obj:0)
C32775                                              1 	(obj:0)
C32978                                              1 	(obj:0)
C33270                                              1 	(obj:0)
C33338                                              1 	(obj:0)
C33360                                              1 	(obj:0)
C33497                                              1 	(obj:0)
C33597                                              1 	(obj:0)
C34654                                              1 	(obj:0)
C34726                                              1 	(obj:0)
C34794                                              1 	(obj:0)
C34948                                              1 	(obj:0)
C35674                                              1 	(obj:0)
C35869                                              1 	(obj:0)
C35970                                              1 	(obj:0)
C36413                                              1 	(obj:0)
C36662                                              1 	(obj:0)
C36735                                              1 	(obj:0)
C36978                                              1 	(obj:0)
C37013                                              1 	(obj:0)
C37138                                              1 	(obj:0)
C37749                                              1 	(obj:0)
C37804                                              1 	(obj:0)
C37835                                              1 	(obj:0)
C37930                                              1 	(obj:0)
C38108                                              1 	(obj:0)
C38219                                              1 	(obj:0)
C38305                                              1 	(obj:0)
C38345                                              1 	(obj:0)
C38522                                              1 	(obj:0)
C38686                                              1 	(obj:0)
C38864                                              1 	(obj:0)
C39043                                              1 	(obj:0)
C39738                                              1 	(obj:0)
C39959                                              1 	(obj:0)
C40147                                              1 	(obj:0)
C40873                                              1 	(obj:0)
C41006                                              1 	(obj:0)
C41227                                              1 	(obj:0)
C41412                                              1 	(obj:0)
C41649                                              1 	(obj:0)
C41806                                              1 	(obj:0)
C41911                                              1 	(obj:0)
C42094                                              1 	(obj:0)
C42350                                              1 	(obj:0)
C42508                                              1 	(obj:0)
C43484                                              1 	(obj:0)
C43750                                              1 	(obj:0)
C43933                                              1 	(obj:0)
C44080                                              1 	(obj:0)
C44120                                              1 	(obj:0)
C44438                                              1 	(obj:0)
C44619                                              1 	(obj:0)
C44769                                              1 	(obj:0)
C44867                                              1 	(obj:0)
C45344                                              1 	(obj:0)
C45479                                              1 	(obj:0)
C45681                                              1 	(obj:0)
C45817                                              1 	(obj:0)
C45889                                              1 	(obj:0)
C46188                                              1 	(obj:0)
C46386                                              1 	(obj:0)
C46520                                              1 	(obj:0)
C46729                                              1 	(obj:0)
C46850                                              1 	(obj:0)
C47098                                              1 	(obj:0)
C47154                                              1 	(obj:0)
C47403                                              1 	(obj:0)
C48417                                              1 	(obj:0)
C48629                                              1 	(obj:0)
C48734                                              1 	(obj:0)
C48973                                              1 	(obj:0)
C49038                                              1 	(obj:0)
C49311                                              1 	(obj:0)
C49457                                              1 	(obj:0)
C49569                                              1 	(obj:0)
C49792                                              1 	(obj:0)
C49943                                              1 	(obj:0)
C50209                                              1 	(obj:0)
C50349                                              1 	(obj:0)
C50545                                              1 	(obj:0)
C50704                                              1 	(obj:0)
C50864                                              1 	(obj:0)
C51511                                              1 	(obj:0)
C51808                                              1 	(obj:0)
C51851                                              1 	(obj:0)
C51987                                              1 	(obj:0)
C52245                                              1 	(obj:0)
C52443                                              1 	(obj:0)
C52570                                              1 	(obj:0)
C52735                                              1 	(obj:0)
C52927                                              1 	(obj:0)
C53041                                              1 	(obj:0)
C53379                                              1 	(obj:0)
C53525                                              1 	(obj:0)
C53620                                              1 	(obj:0)
C53855                                              1 	(obj:0)
C54059                                              1 	(obj:0)
C54249                                              1 	(obj:0)
C54408                                              1 	(obj:0)
C54452                                              1 	(obj:0)
C54722                                              1 	(obj:0)
C54972                                              1 	(obj:0)
C55078                                              1 	(obj:0)
C55268                                              1 	(obj:0)
C55418                                              1 	(obj:0)
C55517                                              1 	(obj:0)
C55748                                              1 	(obj:0)
C55997                                              1 	(obj:0)
C56044                                              1 	(obj:0)
C56377                                              1 	(obj:0)
C56492                                              1 	(obj:0)
C57228                                              1 	(obj:0)
C57418                              0.999999999999999 	(obj:0)
C57577                                              1 	(obj:0)
C57734                                              1 	(obj:0)
C57918                                              1 	(obj:0)
C58087                                              1 	(obj:0)
C58271                                              1 	(obj:0)
C58426                                              1 	(obj:0)
C58631                                              1 	(obj:0)
C58775                                              1 	(obj:0)
C58858                                              1 	(obj:0)
C59078                                              1 	(obj:0)
C59262                                              1 	(obj:0)
